60 1770
1 2 153
1 3 80
1 4 91
1 5 81
1 6 13
1 7 76
1 8 161
1 9 71
1 10 82
1 11 24
1 12 109
1 13 92
1 14 176
1 15 160
1 16 45
1 17 125
1 18 132
1 19 34
1 20 140
1 21 129
1 22 74
1 23 37
1 24 81
1 25 91
1 26 152
1 27 145
1 28 67
1 29 70
1 30 171
1 31 114
1 32 125
1 33 79
1 34 96
1 35 23
1 36 155
1 37 70
1 38 89
1 39 107
1 40 138
1 41 27
1 42 44
1 43 142
1 44 7
1 45 79
1 46 168
1 47 27
1 48 133
1 49 71
1 50 178
1 51 1
1 52 131
1 53 136
1 54 68
1 55 72
1 56 114
1 57 160
1 58 78
1 59 19
1 60 153
2 3 117
2 4 90
2 5 166
2 6 17
2 7 43
2 8 18
2 9 48
2 10 138
2 11 47
2 12 110
2 13 160
2 14 172
2 15 40
2 16 8
2 17 161
2 18 129
2 19 105
2 20 124
2 21 75
2 22 162
2 23 72
2 24 19
2 25 84
2 26 50
2 27 82
2 28 72
2 29 38
2 30 167
2 31 34
2 32 119
2 33 118
2 34 31
2 35 118
2 36 100
2 37 132
2 38 156
2 39 141
2 40 65
2 41 90
2 42 118
2 43 148
2 44 106
2 45 145
2 46 111
2 47 132
2 48 74
2 49 167
2 50 163
2 51 149
2 52 163
2 53 6
2 54 124
2 55 104
2 56 58
2 57 65
2 58 167
2 59 100
2 60 5
3 4 37
3 5 91
3 6 93
3 7 178
3 8 125
3 9 111
3 10 10
3 11 64
3 12 177
3 13 117
3 14 43
3 15 140
3 16 132
3 17 118
3 18 34
3 19 132
3 20 162
3 21 156
3 22 87
3 23 17
3 24 172
3 25 179
3 26 35
3 27 78
3 28 147
3 29 147
3 30 176
3 31 107
3 32 94
3 33 179
3 34 15
3 35 32
3 36 152
3 37 43
3 38 19
3 39 50
3 40 73
3 41 7
3 42 141
3 43 162
3 44 76
3 45 125
3 46 114
3 47 42
3 48 42
3 49 17
3 50 127
3 51 81
3 52 118
3 53 43
3 54 91
3 55 56
3 56 166
3 57 129
3 58 158
3 59 166
3 60 30
4 5 120
4 6 114
4 7 46
4 8 111
4 9 47
4 10 89
4 11 59
4 12 84
4 13 57
4 14 27
4 15 4
4 16 5
4 17 170
4 18 108
4 19 121
4 20 0
4 21 7
4 22 80
4 23 176
4 24 127
4 25 177
4 26 66
4 27 63
4 28 122
4 29 35
4 30 33
4 31 138
4 32 43
4 33 48
4 34 126
4 35 0
4 36 33
4 37 120
4 38 24
4 39 157
4 40 75
4 41 115
4 42 45
4 43 78
4 44 148
4 45 128
4 46 9
4 47 149
4 48 166
4 49 156
4 50 5
4 51 176
4 52 63
4 53 58
4 54 163
4 55 13
4 56 78
4 57 97
4 58 36
4 59 51
4 60 23
5 6 43
5 7 94
5 8 152
5 9 154
5 10 30
5 11 112
5 12 3
5 13 46
5 14 123
5 15 1
5 16 86
5 17 116
5 18 67
5 19 154
5 20 5
5 21 79
5 22 161
5 23 172
5 24 127
5 25 29
5 26 132
5 27 151
5 28 95
5 29 108
5 30 112
5 31 116
5 32 15
5 33 145
5 34 69
5 35 99
5 36 168
5 37 62
5 38 22
5 39 110
5 40 164
5 41 159
5 42 85
5 43 50
5 44 107
5 45 89
5 46 157
5 47 25
5 48 51
5 49 107
5 50 17
5 51 2
5 52 8
5 53 176
5 54 77
5 55 85
5 56 103
5 57 9
5 58 36
5 59 59
5 60 105
6 7 66
6 8 126
6 9 157
6 10 75
6 11 111
6 12 159
6 13 58
6 14 98
6 15 103
6 16 130
6 17 134
6 18 52
6 19 159
6 20 82
6 21 75
6 22 65
6 23 2
6 24 34
6 25 106
6 26 65
6 27 28
6 28 52
6 29 82
6 30 77
6 31 158
6 32 102
6 33 112
6 34 170
6 35 62
6 36 12
6 37 108
6 38 150
6 39 103
6 40 132
6 41 34
6 42 11
6 43 80
6 44 124
6 45 49
6 46 172
6 47 154
6 48 145
6 49 32
6 50 111
6 51 80
6 52 147
6 53 28
6 54 134
6 55 156
6 56 161
6 57 173
6 58 171
6 59 111
6 60 144
7 8 85
7 9 41
7 10 68
7 11 165
7 12 55
7 13 166
7 14 54
7 15 101
7 16 58
7 17 108
7 18 17
7 19 156
7 20 12
7 21 71
7 22 8
7 23 59
7 24 133
7 25 122
7 26 133
7 27 121
7 28 133
7 29 11
7 30 106
7 31 150
7 32 25
7 33 165
7 34 128
7 35 175
7 36 159
7 37 77
7 38 106
7 39 31
7 40 94
7 41 92
7 42 72
7 43 98
7 44 112
7 45 13
7 46 63
7 47 14
7 48 21
7 49 8
7 50 34
7 51 31
7 52 5
7 53 115
7 54 135
7 55 176
7 56 162
7 57 108
7 58 5
7 59 119
7 60 86
8 9 141
8 10 37
8 11 125
8 12 105
8 13 116
8 14 58
8 15 175
8 16 117
8 17 161
8 18 30
8 19 101
8 20 10
8 21 20
8 22 172
8 23 102
8 24 13
8 25 140
8 26 121
8 27 3
8 28 10
8 29 154
8 30 91
8 31 177
8 32 19
8 33 132
8 34 48
8 35 112
8 36 156
8 37 68
8 38 134
8 39 114
8 40 100
8 41 67
8 42 98
8 43 114
8 44 100
8 45 38
8 46 173
8 47 7
8 48 113
8 49 16
8 50 64
8 51 160
8 52 136
8 53 74
8 54 130
8 55 161
8 56 166
8 57 71
8 58 156
8 59 59
8 60 142
9 10 176
9 11 87
9 12 35
9 13 13
9 14 124
9 15 99
9 16 127
9 17 103
9 18 62
9 19 83
9 20 87
9 21 116
9 22 29
9 23 29
9 24 102
9 25 163
9 26 132
9 27 14
9 28 6
9 29 132
9 30 9
9 31 102
9 32 82
9 33 24
9 34 59
9 35 91
9 36 0
9 37 85
9 38 90
9 39 162
9 40 139
9 41 112
9 42 151
9 43 143
9 44 45
9 45 174
9 46 44
9 47 152
9 48 47
9 49 40
9 50 86
9 51 52
9 52 167
9 53 48
9 54 146
9 55 27
9 56 8
9 57 136
9 58 53
9 59 106
9 60 97
10 11 23
10 12 147
10 13 141
10 14 53
10 15 123
10 16 73
10 17 66
10 18 175
10 19 58
10 20 13
10 21 70
10 22 136
10 23 19
10 24 54
10 25 54
10 26 138
10 27 130
10 28 122
10 29 57
10 30 160
10 31 111
10 32 42
10 33 164
10 34 65
10 35 54
10 36 170
10 37 115
10 38 11
10 39 43
10 40 165
10 41 10
10 42 29
10 43 34
10 44 55
10 45 77
10 46 71
10 47 139
10 48 31
10 49 159
10 50 91
10 51 126
10 52 111
10 53 124
10 54 83
10 55 81
10 56 29
10 57 61
10 58 63
10 59 14
10 60 104
11 12 79
11 13 37
11 14 76
11 15 52
11 16 131
11 17 68
11 18 32
11 19 114
11 20 109
11 21 137
11 22 40
11 23 89
11 24 75
11 25 139
11 26 139
11 27 4
11 28 172
11 29 101
11 30 149
11 31 10
11 32 104
11 33 20
11 34 111
11 35 131
11 36 58
11 37 137
11 38 167
11 39 49
11 40 62
11 41 30
11 42 64
11 43 127
11 44 155
11 45 157
11 46 109
11 47 174
11 48 162
11 49 12
11 50 41
11 51 97
11 52 174
11 53 81
11 54 108
11 55 178
11 56 118
11 57 112
11 58 56
11 59 21
11 60 161
12 13 136
12 14 1
12 15 138
12 16 161
12 17 174
12 18 29
12 19 64
12 20 85
12 21 29
12 22 12
12 23 35
12 24 178
12 25 16
12 26 150
12 27 101
12 28 10
12 29 111
12 30 77
12 31 58
12 32 156
12 33 138
12 34 178
12 35 112
12 36 74
12 37 136
12 38 93
12 39 117
12 40 57
12 41 7
12 42 54
12 43 142
12 44 49
12 45 85
12 46 111
12 47 88
12 48 38
12 49 70
12 50 78
12 51 65
12 52 120
12 53 167
12 54 71
12 55 122
12 56 153
12 57 125
12 58 127
12 59 169
12 60 82
13 14 13
13 15 12
13 16 33
13 17 171
13 18 150
13 19 94
13 20 110
13 21 23
13 22 128
13 23 35
13 24 81
13 25 171
13 26 2
13 27 62
13 28 69
13 29 78
13 30 9
13 31 156
13 32 10
13 33 32
13 34 30
13 35 128
13 36 52
13 37 158
13 38 154
13 39 97
13 40 6
13 41 167
13 42 116
13 43 126
13 44 107
13 45 40
13 46 125
13 47 159
13 48 22
13 49 65
13 50 30
13 51 165
13 52 21
13 53 35
13 54 33
13 55 137
13 56 136
13 57 28
13 58 143
13 59 45
13 60 11
14 15 119
14 16 61
14 17 169
14 18 54
14 19 43
14 20 78
14 21 41
14 22 85
14 23 147
14 24 149
14 25 76
14 26 156
14 27 28
14 28 14
14 29 7
14 30 110
14 31 108
14 32 140
14 33 75
14 34 151
14 35 137
14 36 10
14 37 8
14 38 160
14 39 54
14 40 78
14 41 116
14 42 118
14 43 3
14 44 167
14 45 140
14 46 163
14 47 14
14 48 30
14 49 141
14 50 41
14 51 126
14 52 126
14 53 30
14 54 168
14 55 124
14 56 128
14 57 45
14 58 49
14 59 146
14 60 167
15 16 74
15 17 52
15 18 24
15 19 168
15 20 117
15 21 157
15 22 27
15 23 99
15 24 149
15 25 11
15 26 63
15 27 8
15 28 130
15 29 110
15 30 9
15 31 74
15 32 78
15 33 157
15 34 98
15 35 58
15 36 89
15 37 37
15 38 39
15 39 124
15 40 22
15 41 96
15 42 74
15 43 139
15 44 12
15 45 108
15 46 149
15 47 76
15 48 43
15 49 73
15 50 96
15 51 34
15 52 151
15 53 155
15 54 80
15 55 83
15 56 63
15 57 165
15 58 26
15 59 48
15 60 6
16 17 162
16 18 49
16 19 131
16 20 161
16 21 116
16 22 136
16 23 149
16 24 55
16 25 48
16 26 136
16 27 148
16 28 15
16 29 137
16 30 168
16 31 134
16 32 114
16 33 127
16 34 89
16 35 70
16 36 47
16 37 165
16 38 45
16 39 5
16 40 1
16 41 144
16 42 71
16 43 163
16 44 157
16 45 173
16 46 67
16 47 100
16 48 29
16 49 129
16 50 126
16 51 47
16 52 39
16 53 4
16 54 45
16 55 102
16 56 21
16 57 57
16 58 118
16 59 51
16 60 69
17 18 152
17 19 149
17 20 154
17 21 99
17 22 45
17 23 75
17 24 62
17 25 4
17 26 89
17 27 78
17 28 158
17 29 167
17 30 136
17 31 85
17 32 108
17 33 161
17 34 48
17 35 171
17 36 120
17 37 85
17 38 94
17 39 81
17 40 0
17 41 135
17 42 51
17 43 131
17 44 85
17 45 90
17 46 26
17 47 84
17 48 7
17 49 152
17 50 159
17 51 136
17 52 135
17 53 0
17 54 81
17 55 88
17 56 33
17 57 113
17 58 167
17 59 133
17 60 41
18 19 174
18 20 5
18 21 134
18 22 136
18 23 37
18 24 49
18 25 47
18 26 111
18 27 31
18 28 79
18 29 10
18 30 125
18 31 50
18 32 101
18 33 52
18 34 165
18 35 87
18 36 90
18 37 79
18 38 112
18 39 20
18 40 173
18 41 159
18 42 47
18 43 18
18 44 118
18 45 103
18 46 115
18 47 144
18 48 23
18 49 162
18 50 31
18 51 130
18 52 71
18 53 56
18 54 56
18 55 81
18 56 7
18 57 178
18 58 3
18 59 107
18 60 119
19 20 163
19 21 33
19 22 13
19 23 125
19 24 55
19 25 126
19 26 75
19 27 46
19 28 1
19 29 62
19 30 141
19 31 143
19 32 119
19 33 48
19 34 2
19 35 56
19 36 26
19 37 34
19 38 123
19 39 3
19 40 11
19 41 168
19 42 18
19 43 111
19 44 33
19 45 14
19 46 178
19 47 101
19 48 34
19 49 95
19 50 132
19 51 48
19 52 72
19 53 170
19 54 12
19 55 21
19 56 90
19 57 111
19 58 82
19 59 5
19 60 54
20 21 65
20 22 81
20 23 35
20 24 40
20 25 56
20 26 42
20 27 105
20 28 19
20 29 139
20 30 45
20 31 165
20 32 35
20 33 54
20 34 142
20 35 166
20 36 25
20 37 6
20 38 39
20 39 120
20 40 121
20 41 105
20 42 138
20 43 147
20 44 78
20 45 72
20 46 36
20 47 179
20 48 157
20 49 112
20 50 173
20 51 122
20 52 178
20 53 56
20 54 140
20 55 26
20 56 123
20 57 46
20 58 43
20 59 114
20 60 49
21 22 122
21 23 117
21 24 139
21 25 49
21 26 7
21 27 150
21 28 79
21 29 44
21 30 120
21 31 109
21 32 140
21 33 157
21 34 28
21 35 103
21 36 147
21 37 146
21 38 50
21 39 1
21 40 66
21 41 108
21 42 20
21 43 17
21 44 13
21 45 73
21 46 112
21 47 37
21 48 140
21 49 162
21 50 65
21 51 102
21 52 157
21 53 142
21 54 91
21 55 136
21 56 84
21 57 176
21 58 154
21 59 170
21 60 139
22 23 149
22 24 153
22 25 20
22 26 76
22 27 124
22 28 5
22 29 121
22 30 175
22 31 125
22 32 173
22 33 75
22 34 153
22 35 22
22 36 26
22 37 102
22 38 11
22 39 174
22 40 56
22 41 25
22 42 46
22 43 126
22 44 97
22 45 23
22 46 170
22 47 72
22 48 124
22 49 19
22 50 74
22 51 50
22 52 163
22 53 96
22 54 140
22 55 137
22 56 142
22 57 153
22 58 124
22 59 124
22 60 81
23 24 171
23 25 82
23 26 20
23 27 153
23 28 71
23 29 4
23 30 178
23 31 144
23 32 81
23 33 35
23 34 103
23 35 40
23 36 147
23 37 124
23 38 55
23 39 119
23 40 144
23 41 119
23 42 13
23 43 170
23 44 56
23 45 96
23 46 78
23 47 79
23 48 109
23 49 59
23 50 165
23 51 47
23 52 108
23 53 165
23 54 110
23 55 116
23 56 153
23 57 121
23 58 151
23 59 142
23 60 28
24 25 120
24 26 109
24 27 28
24 28 48
24 29 59
24 30 109
24 31 133
24 32 25
24 33 134
24 34 67
24 35 81
24 36 166
24 37 119
24 38 5
24 39 147
24 40 139
24 41 126
24 42 131
24 43 16
24 44 29
24 45 106
24 46 150
24 47 35
24 48 12
24 49 104
24 50 114
24 51 4
24 52 132
24 53 86
24 54 41
24 55 2
24 56 130
24 57 104
24 58 83
24 59 54
24 60 122
25 26 79
25 27 59
25 28 8
25 29 105
25 30 106
25 31 56
25 32 99
25 33 116
25 34 121
25 35 118
25 36 57
25 37 95
25 38 149
25 39 155
25 40 20
25 41 112
25 42 25
25 43 8
25 44 27
25 45 158
25 46 171
25 47 45
25 48 171
25 49 71
25 50 161
25 51 15
25 52 66
25 53 39
25 54 7
25 55 116
25 56 134
25 57 37
25 58 16
25 59 145
25 60 20
26 27 89
26 28 155
26 29 40
26 30 161
26 31 144
26 32 62
26 33 37
26 34 124
26 35 113
26 36 109
26 37 160
26 38 118
26 39 87
26 40 175
26 41 147
26 42 42
26 43 8
26 44 5
26 45 70
26 46 75
26 47 136
26 48 79
26 49 98
26 50 146
26 51 85
26 52 92
26 53 69
26 54 95
26 55 40
26 56 172
26 57 154
26 58 2
26 59 31
26 60 122
27 28 159
27 29 121
27 30 96
27 31 84
27 32 109
27 33 35
27 34 31
27 35 77
27 36 69
27 37 150
27 38 38
27 39 124
27 40 21
27 41 179
27 42 153
27 43 60
27 44 76
27 45 11
27 46 38
27 47 28
27 48 124
27 49 61
27 50 140
27 51 72
27 52 156
27 53 163
27 54 109
27 55 159
27 56 97
27 57 92
27 58 8
27 59 71
27 60 60
28 29 3
28 30 130
28 31 132
28 32 10
28 33 137
28 34 118
28 35 105
28 36 80
28 37 35
28 38 37
28 39 24
28 40 68
28 41 110
28 42 25
28 43 67
28 44 20
28 45 156
28 46 162
28 47 2
28 48 45
28 49 52
28 50 83
28 51 108
28 52 131
28 53 178
28 54 83
28 55 172
28 56 165
28 57 172
28 58 179
28 59 169
28 60 37
29 30 152
29 31 172
29 32 46
29 33 128
29 34 178
29 35 54
29 36 108
29 37 175
29 38 29
29 39 7
29 40 159
29 41 66
29 42 97
29 43 173
29 44 27
29 45 168
29 46 148
29 47 44
29 48 31
29 49 67
29 50 58
29 51 154
29 52 109
29 53 139
29 54 51
29 55 7
29 56 163
29 57 153
29 58 47
29 59 155
29 60 14
30 31 57
30 32 78
30 33 155
30 34 142
30 35 104
30 36 20
30 37 150
30 38 87
30 39 63
30 40 106
30 41 27
30 42 137
30 43 86
30 44 168
30 45 75
30 46 56
30 47 98
30 48 103
30 49 99
30 50 168
30 51 128
30 52 91
30 53 2
30 54 175
30 55 90
30 56 115
30 57 26
30 58 154
30 59 97
30 60 79
31 32 177
31 33 41
31 34 19
31 35 131
31 36 146
31 37 113
31 38 34
31 39 143
31 40 144
31 41 60
31 42 125
31 43 124
31 44 104
31 45 136
31 46 104
31 47 92
31 48 118
31 49 34
31 50 148
31 51 175
31 52 120
31 53 137
31 54 63
31 55 154
31 56 58
31 57 156
31 58 151
31 59 73
31 60 54
32 33 131
32 34 109
32 35 47
32 36 120
32 37 95
32 38 51
32 39 113
32 40 106
32 41 99
32 42 74
32 43 144
32 44 154
32 45 81
32 46 16
32 47 122
32 48 149
32 49 33
32 50 58
32 51 169
32 52 43
32 53 39
32 54 179
32 55 75
32 56 24
32 57 54
32 58 77
32 59 144
32 60 43
33 34 99
33 35 125
33 36 144
33 37 43
33 38 95
33 39 164
33 40 129
33 41 32
33 42 163
33 43 15
33 44 108
33 45 103
33 46 174
33 47 9
33 48 4
33 49 126
33 50 26
33 51 117
33 52 46
33 53 50
33 54 122
33 55 177
33 56 120
33 57 136
33 58 158
33 59 122
33 60 176
34 35 40
34 36 165
34 37 164
34 38 106
34 39 144
34 40 64
34 41 145
34 42 82
34 43 50
34 44 47
34 45 122
34 46 53
34 47 32
34 48 103
34 49 59
34 50 112
34 51 173
34 52 75
34 53 59
34 54 30
34 55 176
34 56 6
34 57 71
34 58 88
34 59 19
34 60 93
35 36 138
35 37 1
35 38 95
35 39 173
35 40 47
35 41 22
35 42 63
35 43 26
35 44 66
35 45 155
35 46 48
35 47 158
35 48 25
35 49 15
35 50 42
35 51 17
35 52 119
35 53 121
35 54 178
35 55 87
35 56 8
35 57 68
35 58 71
35 59 119
35 60 166
36 37 33
36 38 4
36 39 159
36 40 46
36 41 95
36 42 113
36 43 102
36 44 23
36 45 19
36 46 169
36 47 18
36 48 147
36 49 84
36 50 44
36 51 138
36 52 135
36 53 55
36 54 131
36 55 95
36 56 169
36 57 126
36 58 167
36 59 61
36 60 18
37 38 21
37 39 115
37 40 34
37 41 26
37 42 163
37 43 90
37 44 21
37 45 92
37 46 125
37 47 98
37 48 74
37 49 72
37 50 96
37 51 66
37 52 150
37 53 119
37 54 62
37 55 167
37 56 125
37 57 104
37 58 143
37 59 47
37 60 179
38 39 154
38 40 114
38 41 123
38 42 52
38 43 57
38 44 139
38 45 138
38 46 52
38 47 158
38 48 131
38 49 109
38 50 104
38 51 7
38 52 121
38 53 112
38 54 86
38 55 130
38 56 75
38 57 151
38 58 142
38 59 68
38 60 98
39 40 8
39 41 159
39 42 49
39 43 137
39 44 125
39 45 139
39 46 141
39 47 169
39 48 60
39 49 135
39 50 123
39 51 119
39 52 86
39 53 17
39 54 123
39 55 4
39 56 41
39 57 79
39 58 19
39 59 83
39 60 172
40 41 53
40 42 40
40 43 51
40 44 117
40 45 126
40 46 150
40 47 150
40 48 150
40 49 174
40 50 138
40 51 106
40 52 176
40 53 142
40 54 70
40 55 137
40 56 178
40 57 63
40 58 72
40 59 26
40 60 23
41 42 177
41 43 169
41 44 41
41 45 28
41 46 172
41 47 117
41 48 138
41 49 83
41 50 52
41 51 75
41 52 35
41 53 53
41 54 145
41 55 116
41 56 155
41 57 78
41 58 107
41 59 70
41 60 127
42 43 106
42 44 31
42 45 54
42 46 161
42 47 12
42 48 50
42 49 5
42 50 100
42 51 124
42 52 68
42 53 24
42 54 106
42 55 49
42 56 132
42 57 143
42 58 174
42 59 170
42 60 97
43 44 109
43 45 25
43 46 140
43 47 88
43 48 94
43 49 4
43 50 131
43 51 136
43 52 55
43 53 34
43 54 31
43 55 67
43 56 71
43 57 37
43 58 26
43 59 31
43 60 148
44 45 113
44 46 150
44 47 112
44 48 24
44 49 129
44 50 84
44 51 67
44 52 154
44 53 134
44 54 16
44 55 3
44 56 92
44 57 88
44 58 168
44 59 88
44 60 95
45 46 40
45 47 55
45 48 36
45 49 150
45 50 101
45 51 61
45 52 52
45 53 3
45 54 46
45 55 164
45 56 122
45 57 49
45 58 163
45 59 158
45 60 50
46 47 110
46 48 165
46 49 10
46 50 6
46 51 172
46 52 97
46 53 56
46 54 118
46 55 121
46 56 128
46 57 121
46 58 80
46 59 174
46 60 58
47 48 33
47 49 27
47 50 43
47 51 103
47 52 27
47 53 173
47 54 113
47 55 34
47 56 0
47 57 36
47 58 132
47 59 99
47 60 105
48 49 178
48 50 55
48 51 69
48 52 118
48 53 88
48 54 59
48 55 58
48 56 146
48 57 122
48 58 32
48 59 114
48 60 154
49 50 144
49 51 108
49 52 20
49 53 79
49 54 57
49 55 53
49 56 93
49 57 14
49 58 149
49 59 148
49 60 142
50 51 87
50 52 91
50 53 23
50 54 87
50 55 156
50 56 3
50 57 85
50 58 141
50 59 96
50 60 117
51 52 101
51 53 169
51 54 86
51 55 154
51 56 142
51 57 50
51 58 32
51 59 46
51 60 59
52 53 57
52 54 179
52 55 83
52 56 29
52 57 129
52 58 24
52 59 89
52 60 44
53 54 142
53 55 57
53 56 25
53 57 37
53 58 101
53 59 161
53 60 4
54 55 101
54 56 160
54 57 125
54 58 97
54 59 77
54 60 178
55 56 157
55 57 82
55 58 17
55 59 163
55 60 137
56 57 139
56 58 160
56 59 114
56 60 16
57 58 25
57 59 170
57 60 107
58 59 121
58 60 126
59 60 24
